43448 46607 100 99 98 97 96 95 94 93 92 90 89 88 87 86 85 83 82 81 80 79 78 77 76 75 73 72 71 70 69 68 67 66 65 62 61 59 58 57 56 55 54 53 52 51 50 49 47 46 45 43 42 41 40 39 38 37 36 35 34 33 32 30 29 28 27 26 24 23 22 21 19 18 17 16 15 14 13 9 8 7 6 5 4 3 2 